p tw 45 182
0 1
0 8
0 22
0 23
0 24
1 8
1 22
1 23
1 24
2 3
2 4
2 5
2 6
2 7
2 8
2 9
2 10
2 11
2 12
2 13
3 4
3 5
3 6
3 7
3 8
3 9
3 10
3 11
3 12
3 13
4 5
4 6
4 7
4 8
4 9
4 10
4 11
4 12
4 13
5 6
5 7
5 8
5 9
5 10
5 11
5 12
5 13
6 7
6 8
6 9
6 10
6 11
6 12
6 13
7 8
7 9
7 10
7 11
7 12
7 13
8 9
8 10
8 11
8 12
8 13
8 16
8 17
8 22
8 23
8 24
8 14
8 18
8 34
8 35
8 36
8 37
8 38
8 39
8 25
8 40
8 41
8 42
8 43
8 44
9 10
9 11
9 12
9 13
10 11
10 12
10 13
11 12
11 13
12 13
14 15
14 18
14 34
14 35
14 36
14 37
14 38
14 39
16 17
16 20
16 21
18 19
18 34
18 35
18 36
18 37
18 38
18 39
20 21
22 23
22 24
23 24
25 26
25 27
25 28
25 29
25 30
25 31
25 32
25 33
25 40
25 41
25 42
25 43
25 44
26 27
26 28
26 29
26 30
26 31
26 32
26 33
27 28
27 29
27 30
27 31
27 32
27 33
28 29
28 30
28 31
28 32
28 33
29 30
29 31
29 32
29 33
30 31
30 32
30 33
31 32
31 33
32 33
34 35
34 36
34 37
34 38
34 39
35 36
35 37
35 38
35 39
36 37
36 38
36 39
37 38
37 39
38 39
40 41
40 42
40 43
40 44
41 42
41 43
41 44
42 43
42 44
43 44
